100
30
28
6
31
13
7
31
6
10
7
15
14
9
14
32
9
4
31
29
16
25
2
32
31
30
32
1
15
1
19
31
30
15
7
31
32
5
31
23
8
18
1
20
7
7
3
32
11
19
23
32
4
5
14
5
4
7
5
15
31
32
5
14
18
3
13
12
3
7
1
7
14
5
2
1
32
22
15
1
1
5
5
4
4
12
12
6
2
32
26
28
32
9
32
10
11
2
2
16
10
2